NAME : RC1_2_1
TYPE : VRPSPD
DIMENSION : 201
VEHICLES : 23
CAPACITY : 200
DISTANCE : 999999
SCALE : 1000
EDGE_WEIGHT_TYPE : EXACT_2D
NODE_COORD_SECTION
1 70 70
2 10 86
3 16 62
4 84 36
5 79 72
6 16 39
7 61 54
8 96 26
9 16 92
10 85 106
11 6 25
12 37 125
13 87 108
14 18 104
15 61 48
16 97 29
17 112 67
18 50 106
19 99 28
20 15 9
21 19 37
22 90 101
23 125 68
24 127 108
25 90 44
26 4 23
27 17 37
28 113 32
29 63 57
30 94 104
31 58 95
32 137 96
33 127 112
34 103 119
35 20 69
36 2 28
37 88 29
38 86 102
39 126 112
40 61 34
41 113 69
42 109 78
43 21 48
44 86 36
45 97 12
46 121 112
47 19 39
48 66 40
49 87 39
50 63 50
51 121 123
52 116 22
53 137 101
54 137 137
55 70 94
56 117 92
57 122 113
58 109 71
59 35 102
60 91 108
61 8 87
62 140 42
63 16 38
64 44 36
65 60 84
66 109 139
67 80 103
68 66 82
69 99 26
70 34 108
71 135 65
72 36 124
73 102 60
74 30 21
75 139 110
76 10 111
77 18 70
78 4 28
79 57 53
80 54 41
81 107 25
82 110 99
83 84 88
84 101 0
85 28 99
86 119 114
87 118 108
88 50 112
89 44 116
90 82 100
91 83 12
92 126 23
93 85 75
94 39 13
95 120 136
96 105 2
97 36 54
98 35 90
99 111 66
100 119 136
101 84 99
102 137 127
103 95 35
104 69 6
105 1 24
106 31 112
107 138 78
108 100 99
109 123 112
110 119 130
111 92 22
112 137 7
113 121 124
114 34 104
115 121 110
116 56 139
117 106 10
118 125 108
119 21 115
120 110 66
121 36 38
122 56 129
123 4 30
124 8 138
125 88 35
126 116 132
127 113 45
128 28 107
129 115 134
130 116 83
131 57 59
132 89 39
133 59 52
134 112 71
135 35 99
136 23 39
137 84 39
138 19 120
139 20 39
140 90 104
141 66 91
142 4 44
143 78 63
144 92 107
145 37 138
146 120 14
147 33 0
148 113 71
149 112 13
150 41 36
151 64 61
152 121 134
153 103 44
154 67 55
155 86 80
156 64 132
157 93 36
158 115 124
159 103 82
160 18 38
161 122 131
162 107 63
163 48 47
164 62 58
165 0 27
166 118 114
167 91 95
168 113 35
169 119 139
170 104 54
171 15 4
172 59 56
173 21 44
174 100 106
175 47 83
176 34 72
177 32 106
178 109 131
179 89 24
180 97 28
181 86 37
182 1 34
183 103 69
184 98 31
185 103 34
186 13 48
187 22 38
188 61 59
189 94 105
190 118 131
191 108 30
192 36 105
193 133 130
194 15 18
195 103 86
196 107 77
197 99 34
198 17 43
199 140 36
200 26 105
201 60 23
PICKUP_AND_DELIVERY_SECTION
1 0 0 10000000 0 0 0
2 0 0 10000000 0 19 14
3 0 0 10000000 0 24 15
4 0 0 10000000 0 13 10
5 0 0 10000000 0 39 22
6 0 0 10000000 0 1 20
7 0 0 10000000 0 4 10
8 0 0 10000000 0 18 10
9 0 0 10000000 0 6 10
10 0 0 10000000 0 27 20
11 0 0 10000000 0 29 10
12 0 0 10000000 0 37 10
13 0 0 10000000 0 21 20
14 0 0 10000000 0 31 18
15 0 0 10000000 0 28 20
16 0 0 10000000 0 35 30
17 0 0 10000000 0 14 10
18 0 0 10000000 0 35 25
19 0 0 10000000 0 37 30
20 0 0 10000000 0 5 2
21 0 0 10000000 0 37 20
22 0 0 10000000 0 40 10
23 0 0 10000000 0 39 20
24 0 0 10000000 0 5 10
25 0 0 10000000 0 27 6
26 0 0 10000000 0 39 10
27 0 0 10000000 0 9 30
28 0 0 10000000 0 7 36
29 0 0 10000000 0 16 10
30 0 0 10000000 0 22 10
31 0 0 10000000 0 28 35
32 0 0 10000000 0 7 9
33 0 0 10000000 0 30 20
34 0 0 10000000 0 5 18
35 0 0 10000000 0 34 13
36 0 0 10000000 0 25 10
37 0 0 10000000 0 19 33
38 0 0 10000000 0 3 10
39 0 0 10000000 0 15 10
40 0 0 10000000 0 35 7
41 0 0 10000000 0 23 20
42 0 0 10000000 0 13 21
43 0 0 10000000 0 8 10
44 0 0 10000000 0 36 20
45 0 0 10000000 0 35 10
46 0 0 10000000 0 33 20
47 0 0 10000000 0 40 10
48 0 0 10000000 0 27 20
49 0 0 10000000 0 41 20
50 0 0 10000000 0 31 10
51 0 0 10000000 0 9 9
52 0 0 10000000 0 31 32
53 0 0 10000000 0 27 12
54 0 0 10000000 0 39 27
55 0 0 10000000 0 37 32
56 0 0 10000000 0 35 25
57 0 0 10000000 0 22 20
58 0 0 10000000 0 43 20
59 0 0 10000000 0 33 10
60 0 0 10000000 0 17 10
61 0 0 10000000 0 32 17
62 0 0 10000000 0 15 13
63 0 0 10000000 0 8 20
64 0 0 10000000 0 27 9
65 0 0 10000000 0 42 23
66 0 0 10000000 0 19 8
67 0 0 10000000 0 28 15
68 0 0 10000000 0 19 27
69 0 0 10000000 0 40 40
70 0 0 10000000 0 30 10
71 0 0 10000000 0 30 3
72 0 0 10000000 0 38 34
73 0 0 10000000 0 21 30
74 0 0 10000000 0 27 12
75 0 0 10000000 0 18 19
76 0 0 10000000 0 24 21
77 0 0 10000000 0 17 26
78 0 0 10000000 0 18 10
79 0 0 10000000 0 3 10
80 0 0 10000000 0 41 9
81 0 0 10000000 0 6 13
82 0 0 10000000 0 22 21
83 0 0 10000000 0 18 16
84 0 0 10000000 0 12 9
85 0 0 10000000 0 39 10
86 0 0 10000000 0 28 20
87 0 0 10000000 0 2 10
88 0 0 10000000 0 40 18
89 0 0 10000000 0 8 27
90 0 0 10000000 0 20 18
91 0 0 10000000 0 34 29
92 0 0 10000000 0 4 13
93 0 0 10000000 0 29 37
94 0 0 10000000 0 34 20
95 0 0 10000000 0 40 10
96 0 0 10000000 0 12 1
97 0 0 10000000 0 35 15
98 0 0 10000000 0 1 20
99 0 0 10000000 0 23 20
100 0 0 10000000 0 1 30
101 0 0 10000000 0 22 20
102 0 0 10000000 0 6 28
103 0 0 10000000 0 33 10
104 0 0 10000000 0 28 8
105 0 0 10000000 0 19 10
106 0 0 10000000 0 26 20
107 0 0 10000000 0 28 43
108 0 0 10000000 0 12 17
109 0 0 10000000 0 30 20
110 0 0 10000000 0 42 20
111 0 0 10000000 0 40 18
112 0 0 10000000 0 2 40
113 0 0 10000000 0 28 21
114 0 0 10000000 0 38 10
115 0 0 10000000 0 21 30
116 0 0 10000000 0 19 18
117 0 0 10000000 0 22 13
118 0 0 10000000 0 37 20
119 0 0 10000000 0 21 10
120 0 0 10000000 0 14 10
121 0 0 10000000 0 29 5
122 0 0 10000000 0 6 21
123 0 0 10000000 0 36 40
124 0 0 10000000 0 34 10
125 0 0 10000000 0 5 20
126 0 0 10000000 0 18 10
127 0 0 10000000 0 38 4
128 0 0 10000000 0 1 20
129 0 0 10000000 0 11 30
130 0 0 10000000 0 8 30
131 0 0 10000000 0 18 10
132 0 0 10000000 0 43 23
133 0 0 10000000 0 4 20
134 0 0 10000000 0 4 20
135 0 0 10000000 0 20 20
136 0 0 10000000 0 19 20
137 0 0 10000000 0 18 20
138 0 0 10000000 0 17 16
139 0 0 10000000 0 8 10
140 0 0 10000000 0 11 20
141 0 0 10000000 0 27 16
142 0 0 10000000 0 30 24
143 0 0 10000000 0 9 19
144 0 0 10000000 0 2 30
145 0 0 10000000 0 18 5
146 0 0 10000000 0 12 20
147 0 0 10000000 0 37 20
148 0 0 10000000 0 21 10
149 0 0 10000000 0 4 27
150 0 0 10000000 0 33 13
151 0 0 10000000 0 20 20
152 0 0 10000000 0 13 20
153 0 0 10000000 0 26 12
154 0 0 10000000 0 3 10
155 0 0 10000000 0 20 21
156 0 0 10000000 0 3 8
157 0 0 10000000 0 16 20
158 0 0 10000000 0 30 11
159 0 0 10000000 0 36 27
160 0 0 10000000 0 28 30
161 0 0 10000000 0 25 20
162 0 0 10000000 0 42 30
163 0 0 10000000 0 35 19
164 0 0 10000000 0 31 20
165 0 0 10000000 0 24 30
166 0 0 10000000 0 32 10
167 0 0 10000000 0 39 20
168 0 0 10000000 0 39 9
169 0 0 10000000 0 5 20
170 0 0 10000000 0 17 13
171 0 0 10000000 0 13 23
172 0 0 10000000 0 39 20
173 0 0 10000000 0 18 20
174 0 0 10000000 0 34 10
175 0 0 10000000 0 11 1
176 0 0 10000000 0 37 21
177 0 0 10000000 0 19 10
178 0 0 10000000 0 34 20
179 0 0 10000000 0 24 15
180 0 0 10000000 0 11 20
181 0 0 10000000 0 8 10
182 0 0 10000000 0 41 20
183 0 0 10000000 0 22 30
184 0 0 10000000 0 18 20
185 0 0 10000000 0 10 30
186 0 0 10000000 0 20 15
187 0 0 10000000 0 8 20
188 0 0 10000000 0 25 20
189 0 0 10000000 0 6 10
190 0 0 10000000 0 2 20
191 0 0 10000000 0 14 18
192 0 0 10000000 0 33 20
193 0 0 10000000 0 6 13
194 0 0 10000000 0 4 10
195 0 0 10000000 0 30 19
196 0 0 10000000 0 2 34
197 0 0 10000000 0 28 9
198 0 0 10000000 0 28 10
199 0 0 10000000 0 23 1
200 0 0 10000000 0 2 40
201 0 0 10000000 0 40 16
DEPOT_SECTION
1 
-1
EOF
